param price :=
0 10.00
1 10.00
2 10.00
3 10.00
4 10.00
5 10.00
6 10.00
;

param allow_prod_1 :=
0 0.5
1 0.5
2 0.5
3 0.5
4 0.5
5 0.5
6 0.5
;

param allow_prod_2 :=
0 0.5
1 0.5
2 0.5
3 0.5
4 0.5
5 0.5
6 0.5
;
